min: c;

c = 2.77920396669597 * u1_t7_h4 + 4.01087639010308 * u1_t7_h5 + 3.64308342339925 * u1_t5_h6 + 3.64308342339925 * u1_t7_h6 + 4.24760702324036 * u1_t5_h7 + 4.24760702324036 * u1_t7_h7 + 4.24760702324036 * u1_t9_h7 + 5.74046879629691 * u1_t5_h8 + 5.74046879629691 * u1_t7_h8 + 5.74046879629691 * u1_t9_h8 + 5.74046879629691 * u1_t10_h8 + 5.21490126052062 * u1_t5_h9 + 5.21490126052062 * u1_t7_h9 + 5.21490126052062 * u1_t9_h9 + 5.21490126052062 * u1_t10_h9 + 5.67102162017065 * u1_t5_h10 + 5.67102162017065 * u1_t7_h10 + 5.67102162017065 * u1_t9_h10 + 5.67102162017065 * u1_t10_h10 + 3.91576518730634 * u1_t5_h11 + 3.91576518730634 * u1_t9_h11 + 3.91576518730634 * u1_t10_h11 + 6.3951482641867 * u1_t4_h12 + 6.3951482641867 * u1_t5_h12 + 6.3951482641867 * u1_t8_h12 + 6.3951482641867 * u1_t9_h12 + 6.3951482641867 * u1_t10_h12 + 4.68897098556618 * u1_t4_h13 + 4.68897098556618 * u1_t8_h13 + 4.68897098556618 * u1_t9_h13 + 4.68897098556618 * u1_t10_h13 + 4.9308049258183 * u1_t4_h14 + 4.9308049258183 * u1_t8_h14 + 4.9308049258183 * u1_t9_h14 + 4.9308049258183 * u1_t10_h14 + 5.96338711752127 * u1_t4_h15 + 5.96338711752127 * u1_t8_h15 + 5.56828418939799 * u1_t4_h16 + 5.56828418939799 * u1_t8_h16 + 6.56066347480759 * u1_t4_h17 + 6.56066347480759 * u1_t8_h17 + 6.53102770834909 * u1_t2_h18 + 6.53102770834909 * u1_t4_h18 + 6.53102770834909 * u1_t6_h18 + 6.53102770834909 * u1_t8_h18 + 5.77601348971926 * u1_t2_h19 + 5.77601348971926 * u1_t3_h19 + 5.77601348971926 * u1_t4_h19 + 5.77601348971926 * u1_t6_h19 + 5.65149615978597 * u1_t1_h20 + 5.65149615978597 * u1_t2_h20 + 5.65149615978597 * u1_t3_h20 + 5.65149615978597 * u1_t4_h20 + 5.65149615978597 * u1_t6_h20 + 5.35639013412676 * u1_t1_h21 + 5.35639013412676 * u1_t2_h21 + 5.35639013412676 * u1_t3_h21 + 5.23297024203777 * u1_t1_h22 + 5.23297024203777 * u1_t2_h22 + 5.65769021795724 * u1_t1_h23 + 5.65769021795724 * u1_t2_h23;
0 <= u1_t1_h20 <= 1;
0 <= u1_t1_h21 <= 1;
0 <= u1_t1_h22 <= 1;
0 <= u1_t1_h23 <= 1;
u1_t1_h20 + u1_t1_h21 + u1_t1_h22 + u1_t1_h23 = 1;
0 <= u1_t2_h18 <= 1;
0 <= u1_t2_h19 <= 1;
0 <= u1_t2_h20 <= 1;
0 <= u1_t2_h21 <= 1;
0 <= u1_t2_h22 <= 1;
0 <= u1_t2_h23 <= 1;
u1_t2_h18 + u1_t2_h19 + u1_t2_h20 + u1_t2_h21 + u1_t2_h22 + u1_t2_h23 = 2;
0 <= u1_t3_h19 <= 1;
0 <= u1_t3_h20 <= 1;
0 <= u1_t3_h21 <= 1;
u1_t3_h19 + u1_t3_h20 + u1_t3_h21 = 1;
0 <= u1_t4_h12 <= 1;
0 <= u1_t4_h13 <= 1;
0 <= u1_t4_h14 <= 1;
0 <= u1_t4_h15 <= 1;
0 <= u1_t4_h16 <= 1;
0 <= u1_t4_h17 <= 1;
0 <= u1_t4_h18 <= 1;
0 <= u1_t4_h19 <= 1;
0 <= u1_t4_h20 <= 1;
u1_t4_h12 + u1_t4_h13 + u1_t4_h14 + u1_t4_h15 + u1_t4_h16 + u1_t4_h17 + u1_t4_h18 + u1_t4_h19 + u1_t4_h20 = 3;
0 <= u1_t5_h6 <= 1;
0 <= u1_t5_h7 <= 1;
0 <= u1_t5_h8 <= 1;
0 <= u1_t5_h9 <= 1;
0 <= u1_t5_h10 <= 1;
0 <= u1_t5_h11 <= 1;
0 <= u1_t5_h12 <= 1;
u1_t5_h6 + u1_t5_h7 + u1_t5_h8 + u1_t5_h9 + u1_t5_h10 + u1_t5_h11 + u1_t5_h12 = 3;
0 <= u1_t6_h18 <= 1;
0 <= u1_t6_h19 <= 1;
0 <= u1_t6_h20 <= 1;
u1_t6_h18 + u1_t6_h19 + u1_t6_h20 = 2;
0 <= u1_t7_h4 <= 1;
0 <= u1_t7_h5 <= 1;
0 <= u1_t7_h6 <= 1;
0 <= u1_t7_h7 <= 1;
0 <= u1_t7_h8 <= 1;
0 <= u1_t7_h9 <= 1;
0 <= u1_t7_h10 <= 1;
u1_t7_h4 + u1_t7_h5 + u1_t7_h6 + u1_t7_h7 + u1_t7_h8 + u1_t7_h9 + u1_t7_h10 = 2;
0 <= u1_t8_h12 <= 1;
0 <= u1_t8_h13 <= 1;
0 <= u1_t8_h14 <= 1;
0 <= u1_t8_h15 <= 1;
0 <= u1_t8_h16 <= 1;
0 <= u1_t8_h17 <= 1;
0 <= u1_t8_h18 <= 1;
u1_t8_h12 + u1_t8_h13 + u1_t8_h14 + u1_t8_h15 + u1_t8_h16 + u1_t8_h17 + u1_t8_h18 = 2;
0 <= u1_t9_h7 <= 1;
0 <= u1_t9_h8 <= 1;
0 <= u1_t9_h9 <= 1;
0 <= u1_t9_h10 <= 1;
0 <= u1_t9_h11 <= 1;
0 <= u1_t9_h12 <= 1;
0 <= u1_t9_h13 <= 1;
0 <= u1_t9_h14 <= 1;
u1_t9_h7 + u1_t9_h8 + u1_t9_h9 + u1_t9_h10 + u1_t9_h11 + u1_t9_h12 + u1_t9_h13 + u1_t9_h14 = 3;
0 <= u1_t10_h8 <= 1;
0 <= u1_t10_h9 <= 1;
0 <= u1_t10_h10 <= 1;
0 <= u1_t10_h11 <= 1;
0 <= u1_t10_h12 <= 1;
0 <= u1_t10_h13 <= 1;
0 <= u1_t10_h14 <= 1;
u1_t10_h8 + u1_t10_h9 + u1_t10_h10 + u1_t10_h11 + u1_t10_h12 + u1_t10_h13 + u1_t10_h14 = 3;
